20	5
0	2	2	1
1	1	6
2	4	20	8	16	19
3	0
4	2	18	13
5	2	19	9
6	2	3	16
7	1	5
8	1	4
9	1	8
10	1	7
11	1	10
12	1	11
13	2	17	15
14	1	21
15	1	21
16	1	21
17	1	21
18	1	21
19	1	21
20	2	21	12
21	0
0	0	0	0	0	0	0
1	4	0	0	0	4	0
2	3	2	1	2	2	5
3	8	1	1	2	0	2
4	1	0	2	0	0	2
5	1	3	5	1	0	4
6	10	5	1	5	0	4
7	1	0	0	5	0	0
8	4	1	0	1	0	1
9	3	3	5	5	0	2
10	6	2	2	5	3	4
11	7	2	2	2	1	1
12	4	2	3	0	3	0
13	7	4	1	0	0	4
14	4	4	1	3	4	0
15	2	4	2	5	3	1
16	4	2	1	2	1	2
17	9	0	3	1	0	1
18	5	3	4	1	5	4
19	9	1	3	3	1	0
20	7	3	2	3	3	4
21	0	0	0	0	0	0
5	5	5	5	5
